c "97327.clq"
p edge 80 304
e 1 5
e 1 6
e 1 7
e 1 10
e 1 20
e 1 24
e 1 25
e 1 27
e 1 34
e 1 41
e 1 54
e 1 59
e 1 80
e 2 5
e 2 6
e 2 7
e 2 8
e 2 11
e 2 19
e 2 22
e 2 27
e 2 30
e 2 31
e 2 35
e 2 40
e 2 44
e 2 59
e 2 65
e 3 5
e 3 8
e 3 15
e 3 16
e 3 18
e 3 21
e 3 27
e 3 56
e 4 5
e 4 6
e 4 9
e 4 16
e 4 34
e 4 40
e 4 62
e 4 69
e 4 72
e 4 77
e 4 78
e 5 6
e 5 7
e 5 8
e 5 9
e 5 10
e 5 11
e 5 12
e 5 13
e 5 14
e 5 17
e 5 18
e 5 19
e 5 20
e 5 21
e 5 24
e 5 30
e 5 32
e 5 33
e 5 35
e 5 38
e 5 47
e 5 48
e 5 66
e 6 7
e 6 8
e 6 11
e 6 12
e 6 14
e 6 16
e 6 17
e 6 20
e 6 21
e 6 22
e 6 23
e 6 25
e 6 28
e 6 31
e 6 33
e 6 35
e 6 38
e 6 40
e 6 46
e 6 47
e 6 54
e 6 65
e 6 66
e 6 70
e 6 71
e 6 72
e 6 74
e 6 78
e 6 79
e 7 9
e 7 10
e 7 11
e 7 18
e 7 19
e 7 23
e 7 24
e 7 26
e 7 37
e 7 39
e 7 40
e 7 42
e 7 43
e 7 45
e 7 63
e 7 68
e 8 9
e 8 12
e 8 15
e 8 16
e 8 17
e 8 19
e 8 22
e 8 34
e 8 64
e 8 78
e 9 10
e 9 13
e 9 15
e 9 68
e 10 13
e 10 27
e 10 36
e 10 38
e 10 42
e 10 44
e 10 70
e 10 73
e 11 12
e 11 13
e 11 14
e 11 17
e 11 18
e 11 23
e 11 29
e 11 39
e 11 41
e 11 42
e 11 44
e 11 45
e 11 49
e 11 50
e 11 51
e 11 54
e 11 56
e 11 59
e 11 67
e 11 69
e 11 75
e 12 14
e 12 31
e 13 20
e 13 24
e 13 39
e 13 61
e 13 73
e 14 15
e 14 23
e 14 26
e 14 57
e 15 29
e 15 32
e 15 35
e 15 36
e 15 46
e 16 26
e 16 39
e 16 41
e 16 43
e 16 53
e 16 64
e 16 68
e 16 70
e 17 21
e 17 22
e 17 29
e 17 34
e 17 38
e 17 45
e 17 48
e 17 68
e 18 36
e 18 52
e 19 60
e 20 30
e 20 49
e 21 25
e 21 26
e 21 28
e 21 29
e 21 48
e 21 50
e 21 60
e 21 71
e 21 77
e 22 32
e 22 36
e 22 58
e 22 79
e 23 30
e 23 37
e 23 51
e 23 69
e 24 25
e 24 28
e 24 32
e 24 44
e 25 31
e 25 62
e 25 75
e 26 28
e 26 33
e 26 37
e 26 46
e 26 51
e 26 74
e 27 46
e 27 53
e 27 71
e 27 76
e 29 47
e 29 49
e 29 50
e 29 56
e 29 60
e 29 67
e 29 71
e 29 74
e 30 33
e 31 37
e 31 43
e 31 48
e 31 49
e 32 45
e 32 74
e 33 41
e 33 50
e 33 51
e 33 55
e 33 57
e 33 62
e 33 65
e 33 73
e 34 53
e 34 57
e 34 67
e 35 42
e 35 47
e 35 55
e 35 56
e 35 58
e 36 43
e 36 53
e 36 55
e 36 72
e 38 61
e 39 57
e 39 63
e 39 64
e 39 73
e 39 75
e 39 80
e 40 52
e 43 69
e 43 70
e 44 58
e 44 61
e 44 62
e 46 77
e 47 52
e 47 60
e 48 75
e 49 52
e 49 54
e 49 59
e 49 76
e 50 55
e 50 80
e 51 76
e 52 58
e 52 63
e 52 67
e 52 76
e 53 72
e 54 66
e 55 61
e 55 65
e 56 78
e 60 63
e 60 64
e 60 79
e 61 66
e 69 80
e 74 77
e 74 79
